p wcnf 179 211 212 
1 -2 34 0 
1 87 -86 0 
1 96 -146 0 
1 -93 156 0 
1 -46 -83 0 
1 -174 175 0 
1 -134 -44 0 
1 34 21 0 
1 146 -152 0 
1 47 -51 0 
1 110 74 0 
1 -161 -59 0 
1 23 17 0 
1 -101 -168 0 
1 -174 -162 0 
1 134 -41 0 
1 20 148 0 
1 -65 -136 0 
1 -107 -16 0 
1 -1 -17 0 
1 158 5 0 
1 21 130 0 
1 132 -140 0 
1 54 -112 0 
1 -74 34 0 
1 -45 -126 0 
1 -44 159 0 
1 -44 -106 0 
1 -20 -146 0 
1 -77 -143 0 
1 156 -44 0 
1 -95 140 0 
1 -68 89 0 
1 118 146 0 
1 167 -98 0 
1 -139 -164 0 
1 46 -65 0 
1 -144 101 0 
1 -96 3 0 
1 22 26 0 
1 81 22 0 
1 108 -174 0 
1 175 166 0 
1 102 -3 0 
1 -75 -169 0 
1 -104 -18 0 
1 85 -93 0 
1 43 -21 0 
1 22 -88 0 
1 27 78 0 
1 -132 -39 0 
1 -9 -40 0 
1 -73 33 0 
1 149 109 0 
1 113 -95 0 
1 -144 -148 0 
1 3 158 0 
1 156 77 0 
1 -12 -123 0 
1 152 -139 0 
1 88 105 0 
1 150 -74 0 
1 -103 -34 0 
1 -132 -175 0 
1 -15 -149 0 
1 -146 88 0 
1 63 -65 0 
1 143 -56 0 
1 44 21 0 
1 73 129 0 
1 60 -46 0 
1 -74 -160 0 
1 -40 111 0 
1 158 152 0 
1 -146 111 0 
1 -39 -64 0 
1 54 82 0 
1 -151 -152 0 
1 97 -144 0 
1 145 -152 0 
1 -97 -137 0 
1 -129 23 0 
1 -60 -49 0 
1 -114 131 0 
1 -11 63 0 
1 -105 74 0 
1 -147 -113 0 
1 31 59 0 
1 57 -3 0 
1 37 86 0 
1 2 -96 0 
1 -46 91 0 
1 -35 64 0 
1 -78 -134 0 
1 67 171 0 
1 -66 -126 0 
1 -28 7 0 
1 37 -115 0 
1 24 80 0 
1 -170 120 0 
1 -29 161 0 
1 88 49 0 
1 21 152 0 
1 -163 75 0 
1 8 50 0 
1 -69 110 0 
1 -83 -150 0 
1 -154 47 0 
1 -128 38 0 
1 -175 -21 0 
1 171 97 0 
1 21 105 0 
1 23 -144 0 
1 -84 124 0 
1 -91 50 0 
1 -161 -7 0 
1 67 117 0 
1 -2 -93 0 
1 -10 17 0 
1 -128 91 0 
1 -124 22 0 
1 -19 -156 0 
1 -70 122 0 
1 -144 26 0 
1 59 51 0 
1 -11 125 0 
1 7 -81 0 
1 53 20 0 
1 -177 102 0 
1 36 -159 0 
1 91 -148 0 
1 -92 -143 0 
1 -131 89 0 
1 -110 -121 0 
1 -167 -10 0 
1 -157 -144 0 
1 -18 -91 0 
1 37 30 0 
1 -92 116 0 
1 -134 -118 0 
1 -127 94 0 
1 95 -86 0 
1 -123 56 0 
1 150 -106 0 
1 -23 152 0 
1 168 159 0 
1 83 81 0 
1 109 84 0 
1 -31 -108 0 
1 76 52 0 
1 152 169 0 
1 111 56 0 
1 168 12 0 
1 -103 171 0 
1 -168 68 0 
1 -72 -160 0 
1 90 28 0 
1 90 -1 0 
1 -150 -77 0 
1 74 -159 0 
1 65 146 0 
1 134 115 0 
1 -87 -105 0 
1 -110 46 0 
1 -152 34 0 
1 128 -100 0 
1 -24 6 0 
1 -1 -173 0 
1 -36 -85 0 
1 41 175 0 
1 70 144 0 
1 108 -140 0 
1 74 41 0 
1 81 112 0 
1 -157 167 0 
1 -29 -106 0 
1 175 15 0 
1 48 -131 0 
1 -97 125 0 
1 -171 -172 0 
1 18 -20 0 
1 -74 47 0 
1 -109 81 0 
1 -174 -41 0 
1 155 -162 0 
1 -153 45 0 
1 -62 -94 0 
1 -175 8 0 
1 -4 125 0 
1 -122 34 0 
1 124 107 0 
1 42 35 0 
1 -53 -51 0 
1 -151 -114 0 
1 -138 -134 0 
1 -25 16 0 
1 30 167 0 
1 -135 100 0 
1 -38 138 0 
1 -14 46 0 
1 -109 -145 0 
1 -114 -79 0 
1 1 -16 0 
1 125 34 0 
1 -131 -2 0 
1 138 88 0 
1 -157 -176 0 
1 -74 -87 0 
1 157 -41 0 
1 -87 124 0 
1 -136 55 0 
